12
0 91 57 71 73 77 2 37 18 99 26 13 
12 0 82 31 15 61 95 51 31 26 62 14 
26 16 0 9 63 92 34 79 61 72 9 29 
71 94 47 0 16 98 39 58 10 68 50 92 
34 28 99 9 0 10 30 95 55 8 26 19 
55 89 88 52 61 0 19 1 33 32 79 95 
99 40 10 32 53 10 0 66 24 84 33 6 
41 94 74 81 72 74 72 0 8 5 62 88 
93 2 46 47 94 43 87 11 0 55 93 97 
100 3 76 16 32 93 80 74 66 0 19 12 
44 56 84 79 59 1 22 31 64 30 0 51 
66 96 86 72 21 31 49 75 74 70 28 0 
